Version identifier: 22.1.1.0 | 2022-11-28 | 9160aff4d
CPXPARAM_TimeLimit                               3600
Tried aggregator 1 time.
MIP Presolve eliminated 94 rows and 45 columns.
Reduced MIP has 5656 rows, 2569 columns, and 16868 nonzeros.
Reduced MIP has 2569 binaries, 0 generals, 0 SOSs, and 0 indicators.
Presolve time = 0.01 sec. (12.61 ticks)
Found incumbent of value 4082516.000000 after 0.02 sec. (15.40 ticks)
Probing time = 0.01 sec. (3.55 ticks)
Tried aggregator 1 time.
Detecting symmetries...
Reduced MIP has 5656 rows, 2569 columns, and 16868 nonzeros.
Reduced MIP has 2569 binaries, 0 generals, 0 SOSs, and 0 indicators.
Presolve time = 0.01 sec. (14.44 ticks)
Probing time = 0.01 sec. (3.55 ticks)
Clique table members: 2456.
MIP emphasis: balance optimality and feasibility.
MIP search method: dynamic search.
Parallel mode: deterministic, using up to 8 threads.
Root relaxation solution time = 0.01 sec. (10.70 ticks)

        Nodes                                         Cuts/
   Node  Left     Objective  IInf  Best Integer    Best Bound    ItCnt     Gap

*     0+    0                      4082516.0000        0.0000           100.00%
*     0+    0                      2622549.0000        0.0000           100.00%
*     0+    0                      2471989.0000        0.0000           100.00%
*     0+    0                      2385853.0000        0.0000           100.00%
      0     0    93774.0000   100  2385853.0000    93774.0000      158   96.07%
*     0+    0                      1107938.0000    93774.0000            91.54%
      0     0   106217.5000   100  1107938.0000     Cuts: 164      265   90.41%
*     0+    0                       138405.0000   106217.5000            23.26%
      0     0   118674.0000    96   138405.0000     Cuts: 168      392   14.26%
*     0+    0                       138372.0000   118674.0000            14.24%
Detecting symmetries...

Repeating presolve.
Tried aggregator 1 time.
MIP Presolve eliminated 5006 rows and 2075 columns.
MIP Presolve modified 393 coefficients.
Reduced MIP has 650 rows, 494 columns, and 2195 nonzeros.
Reduced MIP has 494 binaries, 0 generals, 0 SOSs, and 0 indicators.
Presolve time = 0.00 sec. (4.45 ticks)
Probing time = 0.00 sec. (0.48 ticks)
Tried aggregator 1 time.
Detecting symmetries...
Reduced MIP has 650 rows, 494 columns, and 2195 nonzeros.
Reduced MIP has 494 binaries, 0 generals, 0 SOSs, and 0 indicators.
Presolve time = 0.00 sec. (2.18 ticks)
Represolve time = 0.01 sec. (11.90 ticks)
Probing time = 0.00 sec. (0.48 ticks)
Clique table members: 525.
MIP emphasis: balance optimality and feasibility.
MIP search method: dynamic search.
Parallel mode: deterministic, using up to 8 threads.
Root relaxation solution time = 0.00 sec. (4.92 ticks)

        Nodes                                         Cuts/
   Node  Left     Objective  IInf  Best Integer    Best Bound    ItCnt     Gap

*     0+    0                       138372.0000   118674.0000            14.24%
      0     0   121510.0000    94   138372.0000   121510.0000      585   12.19%
      0     0   126980.6667   145   138372.0000      Cuts: 16      767    8.23%
      0     0   129682.1763   169   138372.0000      Cuts: 60      850    6.28%
      0     0   130536.4120   180   138372.0000      Cuts: 49      938    5.66%
      0     0   130828.6092   180   138372.0000      Cuts: 45     1009    5.45%
      0     0   131210.6844   168   138372.0000      Cuts: 23     1087    5.18%
Detecting symmetries...
      0     0   131462.2522   186   138372.0000      Cuts: 19     1142    4.99%
      0     0   131738.5919   174   138372.0000      Cuts: 22     1208    4.79%
      0     0   131962.8914   173   138372.0000      Cuts: 30     1274    4.63%
      0     0   132650.7420   179   138372.0000      Cuts: 32     1356    4.13%
      0     0   133677.4886   182   138372.0000      Cuts: 31     1443    3.39%
      0     0        cutoff         138372.0000   138372.0000     1443    0.00%
Elapsed time = 0.36 sec. (264.33 ticks, tree = 0.01 MB, solutions = 7)

Implied bound cuts applied:  53
Zero-half cuts applied:  26
Gomory fractional cuts applied:  1

Root node processing (before b&c):
  Real time             =    0.36 sec. (264.52 ticks)
Parallel b&c, 8 threads:
  Real time             =    0.00 sec. (0.00 ticks)
  Sync time (average)   =    0.00 sec.
  Wait time (average)   =    0.00 sec.
                          ------------
Total (root+branch&cut) =    0.36 sec. (264.52 ticks)
Status: Optimal
Obj: 138372

Instalacoes abertas:
Instalação 4 aberta
Instalação 9 aberta
Instalação 20 aberta
Instalação 22 aberta

Atribuições (cliente -> instalação):
Cliente 0 -> Instalação 9
Cliente 1 -> Instalação 9
Cliente 2 -> Instalação 9
Cliente 3 -> Instalação 9
Cliente 4 -> Instalação 4
Cliente 5 -> Instalação 9
Cliente 6 -> Instalação 20
Cliente 7 -> Instalação 9
Cliente 8 -> Instalação 4
Cliente 9 -> Instalação 9
Cliente 10 -> Instalação 20
Cliente 11 -> Instalação 20
Cliente 12 -> Instalação 20
Cliente 13 -> Instalação 4
Cliente 14 -> Instalação 9
Cliente 15 -> Instalação 9
Cliente 16 -> Instalação 20
Cliente 17 -> Instalação 20
Cliente 18 -> Instalação 20
Cliente 19 -> Instalação 9
Cliente 20 -> Instalação 20
Cliente 21 -> Instalação 4
Cliente 22 -> Instalação 22
Cliente 23 -> Instalação 4
Cliente 24 -> Instalação 20
Cliente 25 -> Instalação 20
Cliente 26 -> Instalação 9
Cliente 27 -> Instalação 9
Cliente 28 -> Instalação 9
Cliente 29 -> Instalação 20
Cliente 30 -> Instalação 9
Cliente 31 -> Instalação 9
Cliente 32 -> Instalação 9
Cliente 33 -> Instalação 4
Cliente 34 -> Instalação 9
Cliente 35 -> Instalação 20
Cliente 36 -> Instalação 9
Cliente 37 -> Instalação 20
Cliente 38 -> Instalação 4
Cliente 39 -> Instalação 4
Cliente 40 -> Instalação 9
Cliente 41 -> Instalação 20
Cliente 42 -> Instalação 4
Cliente 43 -> Instalação 9
Cliente 44 -> Instalação 20
Cliente 45 -> Instalação 4
Cliente 46 -> Instalação 4
Cliente 47 -> Instalação 9
Cliente 48 -> Instalação 20
Cliente 49 -> Instalação 9
